HmaxDs = 0.000000
HmaxUB_percent = 1.301965
HmaxUB_real = 3536.931139
FTnetDs = 1.000000
FTnetUB_percent = 2.188823
FTnetUB_real = 10882.278264
TIFgap = 0.500000
LimCIPF = 67.369303365
SCIP version 1.1.0 [precision: 8 byte] [memory: block] [mode: optimized] [LP solver: Clp 1.8.2]
Copyright (c) 2002-2008 Konrad-Zuse-Zentrum fuer Informationstechnik Berlin (ZIB)

reading user parameter file </home/fabio/docs/hierarquia/models/scip.set>

read problem <data.N30.I1.s1.cluster4.T8.GL3.W5.TIFgap0.5.mps.gz>
============

original problem has 3953 variables (1988 bin, 0 int, 0 impl, 1965 cont) and 703 constraints

solve problem
=============

presolving:
(round 1) 3 del vars, 3 del conss, 4 chg bounds, 0 chg sides, 245 chg coeffs, 0 upgd conss, 0 impls, 280 clqs
(round 2) 5 del vars, 3 del conss, 4 chg bounds, 1 chg sides, 245 chg coeffs, 0 upgd conss, 0 impls, 280 clqs
(round 3) 5 del vars, 3 del conss, 4 chg bounds, 3 chg sides, 245 chg coeffs, 0 upgd conss, 0 impls, 280 clqs
(round 4) 5 del vars, 4 del conss, 4 chg bounds, 3 chg sides, 245 chg coeffs, 281 upgd conss, 0 impls, 280 clqs
   (0.9s) probing: 346/1988 (17.4%) - 0 fixings, 0 aggregations, 21595 implications, 0 bound changes
   (0.9s) probing aborted: 100/100 successive totally useless probings
presolving (5 rounds):
 5 deleted vars, 4 deleted constraints, 4 tightened bounds, 0 added holes, 3 changed sides, 245 changed coefficients
 43120 implications, 280 cliques
presolved problem has 3948 variables (1988 bin, 0 int, 0 impl, 1960 cont) and 699 constraints
      1 constraints of type <knapsack>
    280 constraints of type <setppc>
    418 constraints of type <linear>
Presolving Time: 0.90

 time | node  | left  |LP iter| mem |mdpt |frac |vars |cons |ccons|cols |rows |cuts |confs|strbr|  dualbound   | primalbound  |  gap   
  1.4s|     1 |     0 |  1393 |9889k|   0 | 352 |3948 | 699 | 699 |3948 | 699 |   0 |   0 |   0 | 1.372812e+01 |      --      |    Inf 
  3.6s|     1 |     0 |  6656 |  10M|   0 | 363 |3948 | 699 | 699 |3948 | 704 |   5 |   0 |   0 | 1.535328e+01 |      --      |    Inf 
  4.0s|     1 |     0 |  6837 |  10M|   0 | 341 |3948 | 699 | 699 |3948 | 705 |   6 |   0 |   0 | 1.610317e+01 |      --      |    Inf 
  4.4s|     1 |     0 |  6945 |  10M|   0 | 342 |3948 | 699 | 699 |3948 | 708 |   9 |   0 |   0 | 1.663609e+01 |      --      |    Inf 
  4.8s|     1 |     0 |  6978 |  10M|   0 | 339 |3948 | 699 | 699 |3948 | 710 |  11 |   0 |   0 | 1.663609e+01 |      --      |    Inf 
 14.9s|     1 |     2 |  7029 |  10M|   0 | 339 |3948 | 699 | 699 |3948 | 710 |  11 |   0 |  19 | 1.663609e+01 |      --      |    Inf 
(node 62) unresolved numerical troubles in LP 641
 99.4s|   100 |    68 | 68936 |  11M|  22 | 209 |3948 | 757 | 635 |3948 | 710 |  11 |  58 | 913 | 1.698685e+01 |      --      |    Inf 
(node 124) unresolved numerical troubles in LP 780
  122s|   200 |   141 |109700 |  11M|  29 | 182 |3948 | 791 | 656 |3948 | 710 |  11 |  92 |1034 | 1.698685e+01 |      --      |    Inf 
  151s|   300 |   199 |145232 |  11M|  34 |   - |3948 | 824 | 474 |3948 | 710 |  11 | 125 |1192 | 1.698685e+01 |      --      |    Inf 
(node 311) unresolved numerical troubles in LP 1385
(node 327) unresolved numerical troubles in LP 1410
  175s|   400 |   234 |180775 |  12M|  42 | 192 |3948 | 855 | 599 |3948 | 710 |  11 | 156 |1405 | 1.698685e+01 |      --      |    Inf 
  202s|   500 |   270 |211881 |  12M|  53 |   - |3948 | 878 | 451 |3948 | 710 |  11 | 179 |1543 | 1.698685e+01 |      --      |    Inf 
  288s|   600 |   306 |303473 |  12M|  53 | 152 |3948 | 913 | 530 |3948 | 710 |  11 | 216 |1997 | 1.734949e+01 |      --      |    Inf 
  299s|   700 |   334 |318886 |  12M|  53 | 242 |3948 | 960 | 907 |3948 | 710 |  11 | 269 |2078 | 1.756042e+01 |      --      |    Inf 
  334s|   800 |   355 |358703 |  12M|  53 |   - |3948 | 990 | 564 |   0 |   0 |  11 | 310 |2301 | 1.998621e+01 |      --      |    Inf 
(node 835) unresolved numerical troubles in LP 2452
  365s|   900 |   367 |404848 |  13M|  53 |   - |3948 |1027 | 506 |3948 | 710 |  11 | 352 |2487 | 2.321366e+01 |      --      |    Inf 
 time | node  | left  |LP iter| mem |mdpt |frac |vars |cons |ccons|cols |rows |cuts |confs|strbr|  dualbound   | primalbound  |  gap   
  385s|  1000 |   381 |431667 |  13M|  53 | 171 |3948 |1071 | 635 |3948 | 710 |  11 | 408 |2692 | 2.342751e+01 |      --      |    Inf 
  409s|  1100 |   382 |464633 |  13M|  53 | 198 |3948 |1106 | 845 |3948 | 710 |  11 | 449 |2824 | 2.481329e+01 |      --      |    Inf 
(node 1117) unresolved numerical troubles in LP 2756
  461s|  1200 |   386 |560503 |  13M|  53 | 197 |3948 |1100 | 643 |3948 | 710 |  11 | 449 |3018 | 2.481329e+01 |      --      |    Inf 
  499s|  1300 |   384 |606949 |  13M|  53 |   - |3948 |1103 | 542 |3948 | 710 |  11 | 457 |3107 | 2.596830e+01 |      --      |    Inf 
  543s|  1400 |   397 |661277 |  13M|  53 |   - |3948 |1129 | 664 |   0 |   0 |  11 | 493 |3447 | 2.666670e+01 |      --      |    Inf 
  587s|  1500 |   395 |708517 |  13M|  53 |   - |3948 |1180 | 473 |3948 | 710 |  11 | 551 |3645 | 2.875067e+01 |      --      |    Inf 
(node 1521) unresolved numerical troubles in LP 3259
(node 1540) unresolved numerical troubles in LP 3295
(node 1562) unresolved numerical troubles in LP 3337
  641s|  1600 |   405 |782719 |  14M|  53 |   - |3948 |1197 | 446 |3948 | 710 |  11 | 577 |4029 | 2.875067e+01 |      --      |    Inf 
(node 1670) unresolved numerical troubles in LP 3471
  709s|  1700 |   407 |851619 |  14M|  53 |   - |3948 |1235 | 622 |   0 |   0 |  11 | 623 |4248 | 3.015803e+01 |      --      |    Inf 
  725s|  1800 |   405 |876217 |  14M|  53 |   - |3948 |1226 | 611 |3948 | 710 |  11 | 635 |4372 | 3.022910e+01 |      --      |    Inf 
(node 1815) unresolved numerical troubles in LP 3636
  796s|  1900 |   401 |984881 |  14M|  53 | 163 |3948 |1233 | 693 |3948 | 710 |  11 | 653 |4429 | 3.022910e+01 |      --      |    Inf 
(node 1931) unresolved numerical troubles in LP 3806
(node 1938) unresolved numerical troubles in LP 3823
(node 1997) unresolved numerical troubles in LP 3908
  836s|  2000 |   397 |  1053k|  14M|  53 | 165 |3948 |1234 | 717 |3948 | 710 |  11 | 667 |4707 | 3.022910e+01 |      --      |    Inf 
  892s|  2100 |   391 |  1106k|  14M|  53 |   - |3948 |1253 | 533 |3948 | 710 |  11 | 690 |4940 | 3.022910e+01 |      --      |    Inf 
  914s|  2200 |   386 |  1134k|  14M|  53 |   - |3948 |1282 | 649 |   0 |   0 |  11 | 729 |5111 | 3.022910e+01 |      --      |    Inf 
(node 2223) unresolved numerical troubles in LP 4202
(node 2228) unresolved numerical troubles in LP 4214
  939s|  2300 |   379 |  1178k|  14M|  53 | 212 |3948 |1291 | 690 |3948 | 710 |  11 | 749 |5343 | 3.022910e+01 |      --      |    Inf 
  986s|  2400 |   373 |  1219k|  14M|  53 |   - |3948 |1287 | 485 |3948 | 710 |  11 | 761 |5450 | 3.193031e+01 |      --      |    Inf 
(node 2439) unresolved numerical troubles in LP 4494
 time | node  | left  |LP iter| mem |mdpt |frac |vars |cons |ccons|cols |rows |cuts |confs|strbr|  dualbound   | primalbound  |  gap   
 1011s|  2500 |   359 |  1268k|  14M|  53 | 159 |3948 |1286 | 661 |3948 | 710 |  11 | 767 |5503 | 3.193031e+01 |      --      |    Inf 
 1025s|  2600 |   327 |  1293k|  14M|  53 |   - |3948 |1300 | 521 |3948 | 710 |  11 | 793 |5580 | 3.309497e+01 |      --      |    Inf 
(node 2601) unresolved numerical troubles in LP 4720
 1053s|  2700 |   279 |  1343k|  14M|  53 | 166 |3948 |1308 | 634 |3948 | 710 |  11 | 829 |5710 | 3.632143e+01 |      --      |    Inf 
(node 2730) unresolved numerical troubles in LP 4879
(node 2733) unresolved numerical troubles in LP 4889
 1069s|  2800 |   262 |  1375k|  14M|  53 |   - |3948 |1320 | 526 |3948 | 710 |  11 | 869 |5793 | 3.632143e+01 |      --      |    Inf 
(node 2885) unresolved numerical troubles in LP 5062
 1083s|  2900 |   222 |  1408k|  14M|  53 |   - |3948 |1310 | 561 |3948 | 710 |  11 | 882 |5839 | 4.255335e+01 |      --      |    Inf 
 1098s|  3000 |   107 |  1444k|  13M|  53 |   - |3948 |1315 | 520 |3948 | 710 |  11 | 900 |5866 | 4.570433e+01 |      --      |    Inf 
 1121s|  3100 |    65 |  1487k|  12M|  53 | 193 |3948 |1315 | 701 |3948 | 710 |  11 | 913 |5996 | 4.614983e+01 |      --      |    Inf 
 1183s|  3200 |    66 |  1570k|  12M|  53 | 172 |3948 |1308 | 686 |3948 | 710 |  11 | 913 |6327 | 4.728592e+01 |      --      |    Inf 
 1242s|  3300 |    72 |  1675k|  12M|  53 |   - |3948 |1304 | 519 |3948 | 710 |  11 | 913 |6523 | 4.728592e+01 |      --      |    Inf 
(node 3339) unresolved numerical troubles in LP 5667
 1271s|  3400 |    79 |  1728k|  12M|  53 | 180 |3948 |1304 | 653 |3948 | 710 |  11 | 917 |6673 | 4.820070e+01 |      --      |    Inf 
(node 3444) unresolved numerical troubles in LP 5829
 1306s|  3500 |    75 |  1794k|  12M|  53 |   - |3948 |1305 | 528 |3948 | 710 |  11 | 918 |6714 | 4.820070e+01 |      --      |    Inf 
 1336s|  3600 |    93 |  1863k|  12M|  53 | 207 |3948 |1300 | 659 |3948 | 710 |  11 | 918 |6755 | 4.820070e+01 |      --      |    Inf 
 1472s|  3700 |    96 |  1990k|  12M|  53 | 176 |3948 |1298 | 622 |3948 | 710 |  11 | 920 |7169 | 4.872047e+01 |      --      |    Inf 
(node 3760) unresolved numerical troubles in LP 6261
 1528s|  3800 |    90 |  2082k|  12M|  53 | 156 |3948 |1287 | 623 |3948 | 710 |  11 | 920 |7336 | 4.914755e+01 |      --      |    Inf 
 1578s|  3900 |    98 |  2152k|  12M|  53 | 190 |3948 |1285 | 590 |3948 | 710 |  11 | 924 |7390 | 4.915910e+01 |      --      |    Inf 
 time | node  | left  |LP iter| mem |mdpt |frac |vars |cons |ccons|cols |rows |cuts |confs|strbr|  dualbound   | primalbound  |  gap   
 1599s|  4000 |    78 |  2188k|  12M|  53 | 152 |3948 |1288 | 558 |3948 | 710 |  11 | 935 |7416 | 5.085388e+01 |      --      |    Inf 
 1661s|  4100 |    70 |  2276k|  12M|  53 |   - |3948 |1280 | 458 |3948 | 710 |  11 | 936 |7475 | 6.543707e+01 |      --      |    Inf 
 1708s|  4200 |    60 |  2338k|  11M|  56 |   - |3948 |1285 | 509 |3948 | 710 |  11 | 946 |7590 | 1.542547e+03 |      --      |    Inf 
(node 4266) unresolved numerical troubles in LP 7047
 1827s|  4300 |    48 |  2470k|  11M|  56 | 155 |3948 |1285 | 580 |3948 | 710 |  11 | 951 |7842 | 2.819293e+03 |      --      |    Inf 
 1867s|  4400 |    33 |  2537k|  11M|  56 | 165 |3948 |1285 | 583 |3948 | 710 |  11 | 954 |7957 | 4.209997e+03 |      --      |    Inf 
 1920s|  4500 |    26 |  2624k|  11M|  56 |   - |3948 |1279 | 509 |3948 | 710 |  11 | 954 |7980 | 4.782239e+03 |      --      |    Inf 
(node 4541) unresolved numerical troubles in LP 7428

SCIP Status        : problem is solved [infeasible]
Solving Time (sec) : 1940.61
Solving Nodes      : 4576
Primal Bound       : +1.00000000000000e+20 (0 solutions)
Dual Bound         : +1.00000000000000e+20
Gap                : 0.00 %

primal solution:
================

no solution available

Statistics
==========

SCIP Status        : problem is solved [infeasible]
Solving Time       :    1940.61
Original Problem   :
  Problem name     : labtel
  Variables        : 3953 (1988 binary, 0 integer, 0 implicit integer, 1965 continuous)
  Constraints      : 703 initial, 703 maximal
Presolved Problem  :
  Problem name     : t_labtel
  Variables        : 3948 (1988 binary, 0 integer, 0 implicit integer, 1960 continuous)
  Constraints      : 699 initial, 1323 maximal
Presolvers         :       Time  FixedVars   AggrVars   ChgTypes  ChgBounds   AddHoles    DelCons   ChgSides   ChgCoefs
  trivial          :       0.02          0          0          0          0          0          0          0          0
  dualfix          :       0.00          0          0          0          0          0          0          0          0
  boundshift       :       0.00          0          0          0          0          0          0          0          0
  inttobinary      :       0.00          0          0          0          0          0          0          0          0
  implics          :       0.00          0          0          0          0          0          0          0          0
  probing          :       0.79          0          0          0          0          0          0          0          0
  knapsack         :       0.00          0          0          0          0          0          0          0          0
  setppc           :       0.00          0          0          0          0          0          0          0          0
  linear           :       0.05          0          5          0          4          0          4          3        245
  logicor          :       0.00          0          0          0          0          0          0          0          0
  root node        :          -          0          -          -          0          -          -          -          -
Constraints        :     Number  #Separate #Propagate    #EnfoLP    #EnfoPS    Cutoffs    DomReds       Cuts      Conss   Children
  integral         :          0          0          0       2405          0          0          0          0          0       4810
  knapsack         :          1          5      17643          0         24          0          0          0          0          0
  setppc           :        280          5      17643          0         24         39     974294          0          0          0
  linear           :        418          5      17604          0          1        226     556975          0          0          0
  logicor          :          0+         0       6394          0          0        140       1763          0          0          0
  countsols        :          0          0          0          0         24          0          0          0          0          0
Constraint Timings :  TotalTime   Separate  Propagate     EnfoLP     EnfoPS
  integral         :     332.12       0.00       0.00     332.12       0.00
  knapsack         :       0.04       0.00       0.02       0.00       0.02
  setppc           :       6.27       0.00       6.26       0.00       0.01
  linear           :      20.45       0.15      20.30       0.00       0.00
  logicor          :       0.80       0.00       0.80       0.00       0.00
  countsols        :       0.00       0.00       0.00       0.00       0.00
Propagators        :       Time      Calls    Cutoffs    DomReds
  rootredcost      :       0.02          0          0          0
  pseudoobj        :       5.29      16905          1          0
Conflict Analysis  :       Time      Calls    Success  Conflicts   Literals    Reconvs ReconvLits   LP Iters
  propagation      :       0.13        405        399       1409       55.9          8       32.0          -
  infeasible LP    :       8.64       1877         20        158      145.2          0        0.0          0
  bound exceed. LP :       0.00          0          0          0        0.0          0        0.0          0
  strong branching :       0.00          0          0          0        0.0          0        0.0          0
  pseudo solution  :       0.00          0          0          0        0.0          0        0.0          -
  applied globally :          -          -          -        956       41.5          -          -          -
  applied locally  :          -          -          -          0        0.0          -          -          -
Separators         :       Time      Calls    Cutoffs    DomReds       Cuts      Conss
  cut pool         :       0.00          4          -          -          0          -    (maximal pool size: 16)
  redcost          :       2.66       2409          0          0          0          0
  impliedbounds    :       0.01          5          0          0          0          0
  intobj           :       0.00          0          0          0          0          0
  gomory           :       0.15          5          0          0          6          0
  strongcg         :       0.11          5          0          0          0          0
  cmir             :       0.11          5          0          0          0          0
  flowcover        :       0.58          5          0          0         10          0
  clique           :       0.07          5          0          0          0          0
  zerohalf         :       0.00          0          0          0          0          0
  mcf              :       0.00          0          0          0          0          0
Pricers            :       Time      Calls       Vars
  problem variables:       0.00          0          0
Branching Rules    :       Time      Calls    Cutoffs    DomReds       Cuts      Conss   Children
  relpscost        :     332.09       2405          0          0          0          0       4810
  pscost           :       0.00          0          0          0          0          0          0
  inference        :       0.03         24          0          0          0          0         48
  mostinf          :       0.00          0          0          0          0          0          0
  leastinf         :       0.00          0          0          0          0          0          0
  fullstrong       :       0.00          0          0          0          0          0          0
  allfullstrong    :       0.00          0          0          0          0          0          0
  random           :       0.00          0          0          0          0          0          0
Primal Heuristics  :       Time      Calls      Found
  LP solutions     :       0.00          -          0
  pseudo solutions :       0.00          -          0
  oneopt           :       0.03          0          0
  crossover        :       0.00          0          0
  guideddiving     :       0.00          0          0
  feaspump         :       1.81          1          0
  objpscostdiving  :       1.28          1          0
  rootsoldiving    :       4.65          1          0
  coefdiving       :       2.31          2          0
  pscostdiving     :      17.85          2          0
  fracdiving       :      17.50          2          0
  veclendiving     :       3.75          2          0
  linesearchdiving :       8.92          2          0
  simplerounding   :       0.03          0          0
  rounding         :       0.41        631          0
  shifting         :       2.73        177          0
  intshifting      :       0.11          3          0
  fixandinfer      :       0.00          0          0
  intdiving        :       0.00          0          0
  actconsdiving    :       0.00          0          0
  octane           :       0.00          0          0
  rens             :       8.43          1          0
  rins             :       0.00          0          0
  localbranching   :       0.00          0          0
  mutation         :       0.00          0          0
  dins             :       0.00          0          0
LP                 :       Time      Calls Iterations  Iter/call   Iter/sec
  primal LP        :      42.25         84     153258    1824.50    3627.41
  dual LP          :    1424.99       5818    2417137     415.46    1696.25
  barrier LP       :       0.00          0          0       0.00          -
  diving/probing LP:      48.94       1570      96773      61.64    1977.38
  strong branching :     331.28       8000     751149      93.89    2267.41
    (at root node) :          -         19       3024     159.16          -
  conflict analysis:       0.00          0          0       0.00          -
B&B Tree           :
  number of runs   :          1
  nodes            :       4576
  nodes (total)    :       4576
  nodes left       :          0
  max depth        :         56
  max depth (total):         56
  backtracks       :        622 (13.6%)
  delayed cutoffs  :        283
  repropagations   :       2107 (82844 domain reductions, 62 cutoffs)
  avg switch length:       5.16
  switching time   :       9.53
Solution           :
  Solutions found  :          0 (0 improvements)
  Primal Bound     : infeasible
  Dual Bound       :          -
  Gap              :       0.00 %
  Root Dual Bound  : +1.66360893924168e+01
